100 22139778
52 34 13 79 100 86 12 78 50 88 42 37 49 32 6 2 58 19 62 64 94 21 72 70 87 82 96 98 31 53 9 14 67 93 91 24 83 71 84 29 80 1 57 36 56 89 90 81 69 8 92 51 75 20 28 3 17 63 66 95 65 59 55 97 48 43 25 77 33 46 26 16 40 44 5 22 27 30 35 15 11 18 60 47 45 41 39 7 85 38 68 4 99 76 73 74 54 23 10 61 
